c turning on binary mode checking
c parsing input formula with 202048 variables and 780985 clauses
c finished parsing, read 16525328 bytes from proof file
c detected empty clause; start verification via backward checking
c 7698 of 780985 clauses in core                            
c 9740 of 450512 lemmas in core using 43991 resolution steps
c 0 RAT lemmas in core; 336 redundant literals in core lemmas
s VERIFIED
c verification time: 2.061 seconds
